p cnf 26 66
a 12 14 0
e 1 2 3 4 5 6 7 8 9 10 11 13 15 16 17 18 19 20 21 22 23 24 25 26 0
2 3 -4 0
-2 -3 -4 0
2 -3 4 0
-2 3 4 0
5 -1 0
5 -4 0
1 4 -5 0
6 -3 0
6 -3 0
3 -6 0
-8 -3 0
-8 7 0
3 -7 8 0
9 6 0
9 8 0
-6 -8 -9 0
8 1 -10 0
-8 -1 -10 0
8 -1 10 0
-8 1 10 0
12 11 0
12 -7 0
-11 7 -12 0
-13 10 0
-13 -12 0
-10 12 13 0
14 -9 0
14 -13 0
9 13 -14 0
-15 -5 0
-15 -14 0
5 14 15 0
-16 3 0
-16 3 0
-3 16 0
-8 -6 -17 0
8 6 -17 0
-8 6 17 0
8 -6 17 0
7 -18 -19 0
-7 18 -19 0
7 18 19 0
-7 -18 19 0
-20 17 0
-20 19 0
-17 -19 20 0
21 16 0
21 -20 0
-16 20 -21 0
22 23 -24 0
-22 -23 -24 0
22 -23 24 0
-22 23 24 0
25 -21 0
25 -24 0
21 24 -25 0
26 15 0
26 25 0
-15 -25 -26 0
18 -8 -11 -10 0
-16 17 -15 6 11 -19 -14 0
-19 -21 23 22 -15 0
1 -5 -12 -26 -9 0
-18 21 24 12 -9 2 0
-23 4 22 -13 15 -3 0
26 0
